data/instances/vrp_files/train_26.vrp
NAME : 26
COMMENT : Generated instance No. 26
TYPE : CVRP
DIMENSION : 21
EDGE_WEIGHT_TYPE : EUC_2D
CAPACITY : 30
NODE_COORD_SECTION
 1 2 637
 2 746 715
 3 521 822
 4 430 896
 5 71 954
 6 654 380
 7 197 479
 8 194 166
 9 617 523
 10 670 929
 11 532 580
 12 89 717
 13 399 976
 14 823 522
 15 123 859
 16 799 184
 17 295 793
 18 185 917
 19 424 87
 20 815 373
 21 526 112
DEMAND_SECTION
1 0
2 5
3 6
4 9
5 10
6 9
7 10
8 8
9 10
10 9
11 10
12 8
13 8
14 1
15 10
16 5
17 4
18 2
19 8
20 3
21 4
DEPOT_SECTION
 1
 -1
EOF